p tw 34 37
1 2
2 13
3 25
4 5
5 6
6 7
7 8
8 9
8 22
9 10
10 11
11 12
12 14
13 24
13 30
14 15
15 16
16 17
16 25
17 18
18 19
19 20
20 21
21 25
22 23
23 25
24 29
25 26
26 27
27 28
29 25
30 31
31 32
32 33
33 34
33 4
34 3
